benchmark/results/graph__10-1000-0.10-03_0/graph__10-1000-0.10-03_0_QuintonOs_Benders_primal_sub.lp
\ This file has been generated by DOcplex
\ ENCODING=ISO-8859-1
\Problem name: Quinton Bounded Benders_primal_sub

Maximize
 obj: tau
Subject To
 c1: tau <= 0.001923076923
 c2: y_a0_proc_0 - tau = 0
 c3: y_a0_proc_0 <= 1
 c4: tau <= 0.001154734411
 c5: y_a1_proc_0 + y_a1_proc_1 + y_a1_proc_2 - tau = 0
 c6: y_a1_proc_0 <= 0
 c7: y_a1_proc_1 <= 1
 c8: y_a1_proc_2 <= 0
 c9: tau <= 0.001117318436
 c10: y_a2_proc_0 + y_a2_proc_1 + y_a2_proc_2 - tau = 0
 c11: y_a2_proc_0 <= 1
 c12: y_a2_proc_1 <= 0
 c13: y_a2_proc_2 <= 0
 c14: tau <= 0.001560062402
 c15: y_a3_proc_1 + y_a3_proc_2 - tau = 0
 c16: y_a3_proc_1 <= 1
 c17: y_a3_proc_2 <= 0
 c18: tau <= 0.001175088132
 c19: y_a4_proc_0 + y_a4_proc_1 - tau = 0
 c20: y_a4_proc_0 <= 1
 c21: y_a4_proc_1 <= 0
 c22: tau <= 0.000808407437
 c23: y_a5_proc_0 + y_a5_proc_1 + y_a5_proc_2 - tau = 0
 c24: y_a5_proc_0 <= 0
 c25: y_a5_proc_1 <= 0
 c26: y_a5_proc_2 <= 1
 c27: tau <= 0.000908265213
 c28: y_a6_proc_0 + y_a6_proc_1 + y_a6_proc_2 - tau = 0
 c29: y_a6_proc_0 <= 0
 c30: y_a6_proc_1 <= 0
 c31: y_a6_proc_2 <= 1
 c32: tau <= 0.001166861144
 c33: y_a7_proc_0 + y_a7_proc_2 - tau = 0
 c34: y_a7_proc_0 <= 1
 c35: y_a7_proc_2 <= 0
 c36: tau <= 0.002100840336
 c37: y_a8_proc_0 + y_a8_proc_1 + y_a8_proc_2 - tau = 0
 c38: y_a8_proc_0 <= 1
 c39: y_a8_proc_1 <= 0
 c40: y_a8_proc_2 <= 0
 c41: tau <= 0.001108647450
 c42: y_a9_proc_0 + y_a9_proc_1 - tau = 0
 c43: y_a9_proc_0 <= 0
 c44: y_a9_proc_1 <= 1
 c45: u_a0 - u_a1 - 972 y_a1_proc_0 - 866 y_a1_proc_1 - 1060 y_a1_proc_2 >= 0
 c46: u_a2 - u_a0 - 520 y_a0_proc_0 >= -1
 c47: u_a3 - u_a0 - 520 y_a0_proc_0 >= -1
 c48: u_a1 - u_a4 - 851 y_a4_proc_0 - 1005 y_a4_proc_1 >= 0
 c49: u_a3 - u_a5 - 970 y_a5_proc_0 - 1230 y_a5_proc_1 - 1237 y_a5_proc_2 >= 0
 c50: u_a5 - u_a6 - 1138 y_a6_proc_0 - 942 y_a6_proc_1 - 1101 y_a6_proc_2 >= -1
 c51: u_a7 - u_a0 - 520 y_a0_proc_0 >= -1
 c52: u_a8 - u_a3 - 641 y_a3_proc_1 - 1053 y_a3_proc_2 >= 0
 c53: u_a9 - u_a8 - 476 y_a8_proc_0 - 1190 y_a8_proc_1 - 1006 y_a8_proc_2 >= 0
 c54: - 1138 y_a6_proc_0 - 942 y_a6_proc_1 - 1101 y_a6_proc_2 >= -2
 c55: u_a7 - u_a8 - 476 y_a8_proc_0 - 1190 y_a8_proc_1 - 1006 y_a8_proc_2 >= 0
 c56: - 641 y_a3_proc_1 - 1053 y_a3_proc_2 >= -1
 c57: u_a8 - u_a2 - 895 y_a2_proc_0 - 836 y_a2_proc_1 - 1137 y_a2_proc_2 >= 0
 c58: u_a6 - u_a9 - 669 y_a9_proc_0 - 902 y_a9_proc_1 >= 0
 c59: u_a4 - u_a5 - 970 y_a5_proc_0 - 1230 y_a5_proc_1 - 1237 y_a5_proc_2 >= 0
 c60: u_a4 - u_a7 - 857 y_a7_proc_0 - 927 y_a7_proc_2 >= 0
 c61: u_a5 - u_a3 - 641 y_a3_proc_1 - 1053 y_a3_proc_2 >= -1
 c62: u_a1 - u_a0 - 520 y_a0_proc_0 >= -1250
 c63: u_a0 - u_a1 - 972 y_a1_proc_0 >= -1225
 c64: u_a2 - u_a0 - 520 y_a0_proc_0 >= -1
 c65: u_a0 - u_a2 - 895 y_a2_proc_0 >= 0
 c66: u_a4 - u_a0 - 520 y_a0_proc_0 >= -1
 c67: u_a0 - u_a4 - 851 y_a4_proc_0 >= 0
 c68: u_a5 - u_a0 - 520 y_a0_proc_0 >= -1250
 c69: u_a0 - u_a5 - 970 y_a5_proc_0 >= -1225
 c70: u_a6 - u_a0 - 520 y_a0_proc_0 >= -1250
 c71: u_a0 - u_a6 - 1138 y_a6_proc_0 >= -1225
 c72: u_a7 - u_a0 - 520 y_a0_proc_0 >= -1
 c73: u_a0 - u_a7 - 857 y_a7_proc_0 >= 0
 c74: u_a8 - u_a0 - 520 y_a0_proc_0 >= -1
 c75: u_a0 - u_a8 - 476 y_a8_proc_0 >= 0
 c76: u_a9 - u_a0 - 520 y_a0_proc_0 >= -1250
 c77: u_a0 - u_a9 - 669 y_a9_proc_0 >= -1225
 c78: u_a2 - u_a1 - 1060 y_a1_proc_2 >= -2487
 c79: u_a2 - u_a1 - 866 y_a1_proc_1 >= -1250
 c80: u_a2 - u_a1 - 972 y_a1_proc_0 >= -1250
 c81: u_a1 - u_a2 - 1137 y_a2_proc_2 >= -2462
 c82: u_a1 - u_a2 - 836 y_a2_proc_1 >= -1225
 c83: u_a1 - u_a2 - 895 y_a2_proc_0 >= -1225
 c84: u_a3 - u_a1 - 1060 y_a1_proc_2 >= -2475
 c85: u_a3 - u_a1 - 866 y_a1_proc_1 >= -1
 c86: u_a1 - u_a3 - 1053 y_a3_proc_2 >= -2474
 c87: u_a1 - u_a3 - 641 y_a3_proc_1 >= 0
 c88: u_a4 - u_a1 - 866 y_a1_proc_1 >= -1225
 c89: u_a4 - u_a1 - 972 y_a1_proc_0 >= -1225
 c90: u_a1 - u_a4 - 1005 y_a4_proc_1 >= -1250
 c91: u_a1 - u_a4 - 851 y_a4_proc_0 >= -1250
 c92: u_a5 - u_a1 - 1060 y_a1_proc_2 >= -1225
 c93: u_a5 - u_a1 - 866 y_a1_proc_1 >= -1225
 c94: u_a5 - u_a1 - 972 y_a1_proc_0 >= -2462
 c95: u_a1 - u_a5 - 1237 y_a5_proc_2 >= -1250
 c96: u_a1 - u_a5 - 1230 y_a5_proc_1 >= -1250
 c97: u_a1 - u_a5 - 970 y_a5_proc_0 >= -2487
 c98: u_a6 - u_a1 - 1060 y_a1_proc_2 >= -1250
 c99: u_a6 - u_a1 - 866 y_a1_proc_1 >= -1250
 c100: u_a6 - u_a1 - 972 y_a1_proc_0 >= -2487
 c101: u_a1 - u_a6 - 1101 y_a6_proc_2 >= -1225
 c102: u_a1 - u_a6 - 942 y_a6_proc_1 >= -1225
 c103: u_a1 - u_a6 - 1138 y_a6_proc_0 >= -2462
 c104: u_a7 - u_a1 - 1060 y_a1_proc_2 >= -2487
 c105: u_a7 - u_a1 - 972 y_a1_proc_0 >= -1250
 c106: u_a1 - u_a7 - 927 y_a7_proc_2 >= -2462
 c107: u_a1 - u_a7 - 857 y_a7_proc_0 >= -1225
 c108: u_a8 - u_a1 - 1060 y_a1_proc_2 >= -2487
 c109: u_a8 - u_a1 - 866 y_a1_proc_1 >= -1250
 c110: u_a8 - u_a1 - 972 y_a1_proc_0 >= -1250
 c111: u_a1 - u_a8 - 1006 y_a8_proc_2 >= -2462
 c112: u_a1 - u_a8 - 1190 y_a8_proc_1 >= -1225
 c113: u_a1 - u_a8 - 476 y_a8_proc_0 >= -1225
 c114: u_a9 - u_a1 - 866 y_a1_proc_1 >= -1
 c115: u_a9 - u_a1 - 972 y_a1_proc_0 >= -2475
 c116: u_a1 - u_a9 - 902 y_a9_proc_1 >= 0
 c117: u_a1 - u_a9 - 669 y_a9_proc_0 >= -2474
 c118: u_a3 - u_a2 - 1137 y_a2_proc_2 >= -2487
 c119: u_a3 - u_a2 - 836 y_a2_proc_1 >= -1250
 c120: u_a2 - u_a3 - 1053 y_a3_proc_2 >= -2462
 c121: u_a2 - u_a3 - 641 y_a3_proc_1 >= -1225
 c122: u_a4 - u_a2 - 836 y_a2_proc_1 >= -2474
 c123: u_a4 - u_a2 - 895 y_a2_proc_0 >= 0
 c124: u_a2 - u_a4 - 1005 y_a4_proc_1 >= -2475
 c125: u_a2 - u_a4 - 851 y_a4_proc_0 >= -1
 c126: u_a5 - u_a2 - 1137 y_a2_proc_2 >= -1225
 c127: u_a5 - u_a2 - 836 y_a2_proc_1 >= -2462
 c128: u_a5 - u_a2 - 895 y_a2_proc_0 >= -1225
 c129: u_a2 - u_a5 - 1237 y_a5_proc_2 >= -1250
 c130: u_a2 - u_a5 - 1230 y_a5_proc_1 >= -2487
 c131: u_a2 - u_a5 - 970 y_a5_proc_0 >= -1250
 c132: u_a6 - u_a2 - 1137 y_a2_proc_2 >= -1250
 c133: u_a6 - u_a2 - 836 y_a2_proc_1 >= -2487
 c134: u_a6 - u_a2 - 895 y_a2_proc_0 >= -1250
 c135: u_a2 - u_a6 - 1101 y_a6_proc_2 >= -1225
 c136: u_a2 - u_a6 - 942 y_a6_proc_1 >= -2462
 c137: u_a2 - u_a6 - 1138 y_a6_proc_0 >= -1225
 c138: u_a7 - u_a2 - 1137 y_a2_proc_2 >= -2474
 c139: u_a7 - u_a2 - 895 y_a2_proc_0 >= 0
 c140: u_a2 - u_a7 - 927 y_a7_proc_2 >= -2475
 c141: u_a2 - u_a7 - 857 y_a7_proc_0 >= -1
 c142: u_a8 - u_a2 - 1137 y_a2_proc_2 >= -2474
 c143: u_a8 - u_a2 - 836 y_a2_proc_1 >= -2474
 c144: u_a8 - u_a2 - 895 y_a2_proc_0 >= 0
 c145: u_a2 - u_a8 - 1006 y_a8_proc_2 >= -2475
 c146: u_a2 - u_a8 - 1190 y_a8_proc_1 >= -2475
 c147: u_a2 - u_a8 - 476 y_a8_proc_0 >= -1
 c148: u_a9 - u_a2 - 836 y_a2_proc_1 >= -1225
 c149: u_a9 - u_a2 - 895 y_a2_proc_0 >= -1225
 c150: u_a2 - u_a9 - 902 y_a9_proc_1 >= -1250
 c151: u_a2 - u_a9 - 669 y_a9_proc_0 >= -1250
 c152: u_a4 - u_a3 - 641 y_a3_proc_1 >= -1250
 c153: u_a3 - u_a4 - 1005 y_a4_proc_1 >= -1225
 c154: u_a5 - u_a3 - 1053 y_a3_proc_2 >= -1250
 c155: u_a5 - u_a3 - 641 y_a3_proc_1 >= -1250
 c156: u_a3 - u_a5 - 1237 y_a5_proc_2 >= -1225
 c157: u_a3 - u_a5 - 1230 y_a5_proc_1 >= -1225
 c158: u_a6 - u_a3 - 1053 y_a3_proc_2 >= -1250
 c159: u_a6 - u_a3 - 641 y_a3_proc_1 >= -1250
 c160: u_a3 - u_a6 - 1101 y_a6_proc_2 >= -1225
 c161: u_a3 - u_a6 - 942 y_a6_proc_1 >= -1225
 c162: u_a7 - u_a3 - 1053 y_a3_proc_2 >= -2487
 c163: u_a3 - u_a7 - 927 y_a7_proc_2 >= -2462
 c164: u_a8 - u_a3 - 1053 y_a3_proc_2 >= -2487
 c165: u_a8 - u_a3 - 641 y_a3_proc_1 >= -1250
 c166: u_a3 - u_a8 - 1006 y_a8_proc_2 >= -2462
 c167: u_a3 - u_a8 - 1190 y_a8_proc_1 >= -1225
 c168: u_a9 - u_a3 - 641 y_a3_proc_1 >= 0
 c169: u_a3 - u_a9 - 902 y_a9_proc_1 >= -1
 c170: u_a5 - u_a4 - 1005 y_a4_proc_1 >= -2487
 c171: u_a5 - u_a4 - 851 y_a4_proc_0 >= -1250
 c172: u_a4 - u_a5 - 1230 y_a5_proc_1 >= -2462
 c173: u_a4 - u_a5 - 970 y_a5_proc_0 >= -1225
 c174: u_a6 - u_a4 - 1005 y_a4_proc_1 >= -2487
 c175: u_a6 - u_a4 - 851 y_a4_proc_0 >= -1250
 c176: u_a4 - u_a6 - 942 y_a6_proc_1 >= -2462
 c177: u_a4 - u_a6 - 1138 y_a6_proc_0 >= -1225
 c178: u_a7 - u_a4 - 851 y_a4_proc_0 >= -1
 c179: u_a4 - u_a7 - 857 y_a7_proc_0 >= 0
 c180: u_a8 - u_a4 - 1005 y_a4_proc_1 >= -2475
 c181: u_a8 - u_a4 - 851 y_a4_proc_0 >= -1
 c182: u_a4 - u_a8 - 1190 y_a8_proc_1 >= -2474
 c183: u_a4 - u_a8 - 476 y_a8_proc_0 >= 0
 c184: u_a9 - u_a4 - 1005 y_a4_proc_1 >= -1250
 c185: u_a9 - u_a4 - 851 y_a4_proc_0 >= -1250
 c186: u_a4 - u_a9 - 902 y_a9_proc_1 >= -1225
 c187: u_a4 - u_a9 - 669 y_a9_proc_0 >= -1225
 c188: u_a6 - u_a5 - 1237 y_a5_proc_2 >= 0
 c189: u_a6 - u_a5 - 1230 y_a5_proc_1 >= -2474
 c190: u_a6 - u_a5 - 970 y_a5_proc_0 >= -2474
 c191: u_a5 - u_a6 - 1101 y_a6_proc_2 >= -1
 c192: u_a5 - u_a6 - 942 y_a6_proc_1 >= -2475
 c193: u_a5 - u_a6 - 1138 y_a6_proc_0 >= -2475
 c194: u_a7 - u_a5 - 1237 y_a5_proc_2 >= -1225
 c195: u_a7 - u_a5 - 970 y_a5_proc_0 >= -1225
 c196: u_a5 - u_a7 - 927 y_a7_proc_2 >= -1250
 c197: u_a5 - u_a7 - 857 y_a7_proc_0 >= -1250
 c198: u_a8 - u_a5 - 1237 y_a5_proc_2 >= -1250
 c199: u_a8 - u_a5 - 1230 y_a5_proc_1 >= -2487
 c200: u_a8 - u_a5 - 970 y_a5_proc_0 >= -1250
 c201: u_a5 - u_a8 - 1006 y_a8_proc_2 >= -1225
 c202: u_a5 - u_a8 - 1190 y_a8_proc_1 >= -2462
 c203: u_a5 - u_a8 - 476 y_a8_proc_0 >= -1225
 c204: u_a9 - u_a5 - 1230 y_a5_proc_1 >= -1250
 c205: u_a9 - u_a5 - 970 y_a5_proc_0 >= -2487
 c206: u_a5 - u_a9 - 902 y_a9_proc_1 >= -1225
 c207: u_a5 - u_a9 - 669 y_a9_proc_0 >= -2462
 c208: u_a7 - u_a6 - 1101 y_a6_proc_2 >= -1225
 c209: u_a7 - u_a6 - 1138 y_a6_proc_0 >= -1225
 c210: u_a6 - u_a7 - 927 y_a7_proc_2 >= -1250
 c211: u_a6 - u_a7 - 857 y_a7_proc_0 >= -1250
 c212: u_a8 - u_a6 - 1101 y_a6_proc_2 >= -1250
 c213: u_a8 - u_a6 - 942 y_a6_proc_1 >= -2487
 c214: u_a8 - u_a6 - 1138 y_a6_proc_0 >= -1250
 c215: u_a6 - u_a8 - 1006 y_a8_proc_2 >= -1225
 c216: u_a6 - u_a8 - 1190 y_a8_proc_1 >= -2462
 c217: u_a6 - u_a8 - 476 y_a8_proc_0 >= -1225
 c218: u_a9 - u_a6 - 942 y_a6_proc_1 >= -1250
 c219: u_a9 - u_a6 - 1138 y_a6_proc_0 >= -2487
 c220: u_a6 - u_a9 - 902 y_a9_proc_1 >= -1225
 c221: u_a6 - u_a9 - 669 y_a9_proc_0 >= -2462
 c222: u_a8 - u_a7 - 927 y_a7_proc_2 >= -2475
 c223: u_a8 - u_a7 - 857 y_a7_proc_0 >= -1
 c224: u_a7 - u_a8 - 1006 y_a8_proc_2 >= -2474
 c225: u_a7 - u_a8 - 476 y_a8_proc_0 >= 0
 c226: u_a9 - u_a7 - 857 y_a7_proc_0 >= -1225
 c227: u_a7 - u_a9 - 669 y_a9_proc_0 >= -1250
 c228: u_a9 - u_a8 - 1190 y_a8_proc_1 >= -1250
 c229: u_a9 - u_a8 - 476 y_a8_proc_0 >= -1250
 c230: u_a8 - u_a9 - 902 y_a9_proc_1 >= -1225
 c231: u_a8 - u_a9 - 669 y_a9_proc_0 >= -1225

Bounds
End
