benchmark/results/graph__10-1000-0.10-03_0/graph__10-1000-0.10-03_0_QuintonOs_Benders_primal_sub.txt
solution for: Quinton Bounded Benders_primal_sub
objective: 0.000223964
status: OPTIMAL_SOLUTION(2)
u_a0=1.104
u_a1=0.910
u_a2=0.220
u_a3=0.277
u_a4=0.719
u_a6=0.729
u_a7=0.527
u_a8=0.421
u_a9=0.527
tau=0.000
y_a0_proc_0=0.000
y_a1_proc_1=0.000
y_a2_proc_0=0.000
y_a3_proc_1=0.000
y_a4_proc_0=0.000
y_a5_proc_2=0.000
y_a6_proc_2=0.000
y_a7_proc_0=0.000
y_a8_proc_0=0.000
y_a9_proc_1=0.000
